min: c;

c = 4.04384431458192 * u3_t10_h0 + 4.11163093110198 * u3_t10_h1 + 3.71247842903832 * u3_t4_h2 + 3.71247842903832 * u3_t10_h2 + 3.12002327232202 * u3_t4_h3 + 3.12002327232202 * u3_t10_h3 + 2.69103689835164 * u3_t4_h4 + 2.69103689835164 * u3_t10_h4 + 3.72469211324209 * u3_t4_h5 + 3.72469211324209 * u3_t10_h5 + 4.23606096953185 * u3_t4_h6 + 4.23606096953185 * u3_t10_h6 + 3.76982597637102 * u3_t4_h7 + 3.76982597637102 * u3_t9_h7 + 3.76982597637102 * u3_t10_h7 + 5.72082718782553 * u3_t4_h8 + 5.72082718782553 * u3_t9_h8 + 4.83248594335076 * u3_t4_h9 + 4.83248594335076 * u3_t9_h9 + 5.35494984143703 * u3_t4_h10 + 5.35494984143703 * u3_t6_h10 + 5.35494984143703 * u3_t9_h10 + 3.92629797017084 * u3_t3_h11 + 3.92629797017084 * u3_t4_h11 + 3.92629797017084 * u3_t6_h11 + 3.92629797017084 * u3_t9_h11 + 6.44199481544875 * u3_t3_h12 + 6.44199481544875 * u3_t4_h12 + 6.44199481544875 * u3_t6_h12 + 6.44199481544875 * u3_t9_h12 + 4.44192254105988 * u3_t3_h13 + 4.44192254105988 * u3_t4_h13 + 4.44192254105988 * u3_t5_h13 + 4.44192254105988 * u3_t6_h13 + 4.44192254105988 * u3_t9_h13 + 5.44557549553553 * u3_t3_h14 + 5.44557549553553 * u3_t4_h14 + 5.44557549553553 * u3_t5_h14 + 5.44557549553553 * u3_t6_h14 + 5.44557549553553 * u3_t9_h14 + 6.47286052388004 * u3_t2_h15 + 6.47286052388004 * u3_t3_h15 + 6.47286052388004 * u3_t4_h15 + 6.47286052388004 * u3_t5_h15 + 6.47286052388004 * u3_t6_h15 + 6.47286052388004 * u3_t9_h15 + 5.6332372171812 * u3_t2_h16 + 5.6332372171812 * u3_t4_h16 + 5.6332372171812 * u3_t5_h16 + 5.6332372171812 * u3_t6_h16 + 5.6332372171812 * u3_t9_h16 + 5.97985647029479 * u3_t2_h17 + 5.97985647029479 * u3_t4_h17 + 5.97985647029479 * u3_t6_h17 + 5.97985647029479 * u3_t9_h17 + 6.34532814732582 * u3_t2_h18 + 6.34532814732582 * u3_t6_h18 + 6.34532814732582 * u3_t9_h18 + 5.9159206178663 * u3_t2_h19 + 5.9159206178663 * u3_t9_h19 + 5.15122645527786 * u3_t1_h20 + 5.15122645527786 * u3_t2_h20 + 5.15122645527786 * u3_t8_h20 + 5.15122645527786 * u3_t9_h20 + 5.57408596736754 * u3_t1_h21 + 5.57408596736754 * u3_t2_h21 + 5.57408596736754 * u3_t7_h21 + 5.57408596736754 * u3_t8_h21 + 5.57408596736754 * u3_t9_h21 + 5.86035034431304 * u3_t1_h22 + 5.86035034431304 * u3_t7_h22 + 5.86035034431304 * u3_t8_h22 + 5.51694859503733 * u3_t1_h23 + 5.51694859503733 * u3_t7_h23 + 5.51694859503733 * u3_t8_h23;
0 <= u3_t1_h20 <= 1;
0 <= u3_t1_h21 <= 1;
0 <= u3_t1_h22 <= 1;
0 <= u3_t1_h23 <= 1;
u3_t1_h20 + u3_t1_h21 + u3_t1_h22 + u3_t1_h23 = 2;
0 <= u3_t2_h15 <= 1;
0 <= u3_t2_h16 <= 1;
0 <= u3_t2_h17 <= 1;
0 <= u3_t2_h18 <= 1;
0 <= u3_t2_h19 <= 1;
0 <= u3_t2_h20 <= 1;
0 <= u3_t2_h21 <= 1;
u3_t2_h15 + u3_t2_h16 + u3_t2_h17 + u3_t2_h18 + u3_t2_h19 + u3_t2_h20 + u3_t2_h21 = 3;
0 <= u3_t3_h11 <= 1;
0 <= u3_t3_h12 <= 1;
0 <= u3_t3_h13 <= 1;
0 <= u3_t3_h14 <= 1;
0 <= u3_t3_h15 <= 1;
u3_t3_h11 + u3_t3_h12 + u3_t3_h13 + u3_t3_h14 + u3_t3_h15 = 2;
0 <= u3_t4_h2 <= 1;
0 <= u3_t4_h3 <= 1;
0 <= u3_t4_h4 <= 1;
0 <= u3_t4_h5 <= 1;
0 <= u3_t4_h6 <= 1;
0 <= u3_t4_h7 <= 1;
0 <= u3_t4_h8 <= 1;
0 <= u3_t4_h9 <= 1;
0 <= u3_t4_h10 <= 1;
0 <= u3_t4_h11 <= 1;
0 <= u3_t4_h12 <= 1;
0 <= u3_t4_h13 <= 1;
0 <= u3_t4_h14 <= 1;
0 <= u3_t4_h15 <= 1;
0 <= u3_t4_h16 <= 1;
0 <= u3_t4_h17 <= 1;
u3_t4_h2 + u3_t4_h3 + u3_t4_h4 + u3_t4_h5 + u3_t4_h6 + u3_t4_h7 + u3_t4_h8 + u3_t4_h9 + u3_t4_h10 + u3_t4_h11 + u3_t4_h12 + u3_t4_h13 + u3_t4_h14 + u3_t4_h15 + u3_t4_h16 + u3_t4_h17 = 3;
0 <= u3_t5_h13 <= 1;
0 <= u3_t5_h14 <= 1;
0 <= u3_t5_h15 <= 1;
0 <= u3_t5_h16 <= 1;
u3_t5_h13 + u3_t5_h14 + u3_t5_h15 + u3_t5_h16 = 2;
0 <= u3_t6_h10 <= 1;
0 <= u3_t6_h11 <= 1;
0 <= u3_t6_h12 <= 1;
0 <= u3_t6_h13 <= 1;
0 <= u3_t6_h14 <= 1;
0 <= u3_t6_h15 <= 1;
0 <= u3_t6_h16 <= 1;
0 <= u3_t6_h17 <= 1;
0 <= u3_t6_h18 <= 1;
u3_t6_h10 + u3_t6_h11 + u3_t6_h12 + u3_t6_h13 + u3_t6_h14 + u3_t6_h15 + u3_t6_h16 + u3_t6_h17 + u3_t6_h18 = 2;
0 <= u3_t7_h21 <= 1;
0 <= u3_t7_h22 <= 1;
0 <= u3_t7_h23 <= 1;
u3_t7_h21 + u3_t7_h22 + u3_t7_h23 = 2;
0 <= u3_t8_h20 <= 1;
0 <= u3_t8_h21 <= 1;
0 <= u3_t8_h22 <= 1;
0 <= u3_t8_h23 <= 1;
u3_t8_h20 + u3_t8_h21 + u3_t8_h22 + u3_t8_h23 = 1;
0 <= u3_t9_h7 <= 1;
0 <= u3_t9_h8 <= 1;
0 <= u3_t9_h9 <= 1;
0 <= u3_t9_h10 <= 1;
0 <= u3_t9_h11 <= 1;
0 <= u3_t9_h12 <= 1;
0 <= u3_t9_h13 <= 1;
0 <= u3_t9_h14 <= 1;
0 <= u3_t9_h15 <= 1;
0 <= u3_t9_h16 <= 1;
0 <= u3_t9_h17 <= 1;
0 <= u3_t9_h18 <= 1;
0 <= u3_t9_h19 <= 1;
0 <= u3_t9_h20 <= 1;
0 <= u3_t9_h21 <= 1;
u3_t9_h7 + u3_t9_h8 + u3_t9_h9 + u3_t9_h10 + u3_t9_h11 + u3_t9_h12 + u3_t9_h13 + u3_t9_h14 + u3_t9_h15 + u3_t9_h16 + u3_t9_h17 + u3_t9_h18 + u3_t9_h19 + u3_t9_h20 + u3_t9_h21 = 2;
0 <= u3_t10_h0 <= 1;
0 <= u3_t10_h1 <= 1;
0 <= u3_t10_h2 <= 1;
0 <= u3_t10_h3 <= 1;
0 <= u3_t10_h4 <= 1;
0 <= u3_t10_h5 <= 1;
0 <= u3_t10_h6 <= 1;
0 <= u3_t10_h7 <= 1;
u3_t10_h0 + u3_t10_h1 + u3_t10_h2 + u3_t10_h3 + u3_t10_h4 + u3_t10_h5 + u3_t10_h6 + u3_t10_h7 = 3;
